(declare-fun temp104435_1 () (_ BitVec 64))
(declare-fun temp104435_2 () (_ BitVec 64))
(declare-fun var77740 () (_ BitVec 64))
(declare-fun k!0 () Bool)
(declare-fun ARGNAME_filter_NAMEEND_DIM () (_ BitVec 64))
(declare-fun ARGNAME_data_format_NAMEEND_STRFMT () (_ BitVec 64))
(declare-fun temp104435_3 () (_ BitVec 64))
(declare-fun ARGNAME_out_backprop_NAMEEND_DIM () (_ BitVec 64))
(declare-fun var77770 () (_ BitVec 64))
(declare-fun temp104435_4 () (_ BitVec 64))
(declare-fun temp104435_5 () (_ BitVec 64))
(declare-fun ARGNAME_filter_NAMEEND_DIMSIZE
             ()
             (Array (_ BitVec 64) (_ BitVec 64)))
(declare-fun temp104435_6 () (_ BitVec 64))
(declare-fun temp104435_7 () (_ BitVec 64))
(declare-fun temp104435_8 () (_ BitVec 64))
(declare-fun temp104435_9 () (_ BitVec 64))
(declare-fun temp104435_10 () (_ BitVec 64))
(declare-fun temp104435_11 () (_ BitVec 64))
(declare-fun temp104435_12 () (_ BitVec 64))
(declare-fun temp104435_13 () (_ BitVec 64))
(declare-fun temp104435_14 () (_ BitVec 64))
(declare-fun temp104435_15 () (_ BitVec 64))
(declare-fun temp104435_16 () (_ BitVec 64))
(declare-fun temp104435_17 () (_ BitVec 64))
(declare-fun temp104435_18 () (_ BitVec 64))
(declare-fun var77799 () (_ BitVec 64))
(declare-fun temp104435_19 () (_ BitVec 64))
(declare-fun ARGNAME_out_backprop_NAMEEND_DIMSIZE
             ()
             (Array (_ BitVec 64) (_ BitVec 64)))
(declare-fun temp104435_20 () (_ BitVec 64))
(declare-fun temp104435_21 () (_ BitVec 64))
(declare-fun temp104435_22 () (_ BitVec 64))
(declare-fun temp104435_23 () (_ BitVec 64))
(declare-fun temp104435_24 () (_ BitVec 64))
(declare-fun temp104435_25 () (_ BitVec 64))
(declare-fun temp104435_26 () (_ BitVec 64))
(declare-fun temp104435_27 () (_ BitVec 64))
(declare-fun temp104435_28 () (_ BitVec 64))
(declare-fun temp104435_29 () (_ BitVec 64))
(declare-fun temp104435_30 () (_ BitVec 64))
(declare-fun temp104435_31 () (_ BitVec 64))
(declare-fun temp104435_32 () (_ BitVec 64))
(declare-fun var77832 () (_ BitVec 64))
(declare-fun temp104435_33 () (_ BitVec 64))
(declare-fun temp104435_34 () (_ BitVec 64))
(declare-fun var77833 () (_ BitVec 64))
(declare-fun var77834 () (_ BitVec 64))
(declare-fun temp104435_35 () (_ BitVec 64))
(declare-fun temp104435_36 () (_ BitVec 64))
(declare-fun var275510 () (_ BitVec 64))
(declare-fun temp104435_37 () (_ BitVec 64))
(declare-fun var275528 () (_ BitVec 64))
(declare-fun temp104435_38 () (_ BitVec 64))
(declare-fun temp104435_39 () (_ BitVec 64))
(declare-fun var406582 () (_ BitVec 64))
(declare-fun temp104435_40 () (_ BitVec 64))
(declare-fun var406600 () (_ BitVec 64))
(declare-fun temp104435_41 () (_ BitVec 64))
(declare-fun temp104435_42 () (_ BitVec 64))
(declare-fun var537654 () (_ BitVec 64))
(declare-fun temp104435_43 () (_ BitVec 64))
(declare-fun var537672 () (_ BitVec 64))
(declare-fun temp104435_44 () (_ BitVec 64))
(declare-fun temp104435_46 () (_ BitVec 64))
(declare-fun temp104435_45 () (_ BitVec 64))
(declare-fun temp104435_48 () (_ BitVec 64))
(declare-fun temp104435_47 () (_ BitVec 64))
(declare-fun temp104435_50 () (_ BitVec 64))
(declare-fun temp104435_49 () (_ BitVec 64))
(declare-fun temp104435_52 () (_ BitVec 64))
(declare-fun temp104435_51 () (_ BitVec 64))
(declare-fun temp104435_54 () (_ BitVec 64))
(declare-fun temp104435_53 () (_ BitVec 64))
(declare-fun temp104435_56 () (_ BitVec 64))
(declare-fun temp104435_55 () (_ BitVec 64))
(declare-fun temp104435_57 () (_ BitVec 64))
(declare-fun var926770 () (_ BitVec 64))
(declare-fun temp104435_58 () (_ BitVec 64))
(declare-fun var926771 () (_ BitVec 64))
(declare-fun var926772 () (_ BitVec 64))
(declare-fun var926768 () (_ BitVec 64))
(declare-fun var599004 () (_ BitVec 64))
(declare-fun temp104435_59 () (_ BitVec 64))
(declare-fun var992306 () (_ BitVec 64))
(declare-fun temp104435_60 () (_ BitVec 64))
(declare-fun var992307 () (_ BitVec 64))
(declare-fun var992308 () (_ BitVec 64))
(declare-fun var992304 () (_ BitVec 64))
(declare-fun var599011 () (_ BitVec 64))
(declare-fun temp104435_61 () (_ BitVec 64))
(declare-fun var1057842 () (_ BitVec 64))
(declare-fun temp104435_62 () (_ BitVec 64))
(declare-fun var1057843 () (_ BitVec 64))
(declare-fun var1057844 () (_ BitVec 64))
(declare-fun var1057840 () (_ BitVec 64))
(declare-fun var599016 () (_ BitVec 64))
(declare-fun var78095 () (_ BitVec 64))
(declare-fun temp104435_63 () (_ BitVec 64))
(declare-fun temp104435_64 () (_ BitVec 64))
(declare-fun var78096 () (_ BitVec 64))
(declare-fun var78179 () (_ BitVec 64))
(assert (or (= ARGNAME_data_format_NAMEEND_STRFMT #x0000000000000000)
    (= ARGNAME_data_format_NAMEEND_STRFMT #x0000000000000001)
    (= ARGNAME_data_format_NAMEEND_STRFMT #x0000000000000002)
    (= ARGNAME_data_format_NAMEEND_STRFMT #x0000000000000003)
    (= ARGNAME_data_format_NAMEEND_STRFMT #x0000000000000004)
    (= ARGNAME_data_format_NAMEEND_STRFMT #x0000000000000005)))
(assert (= temp104435_1 #x0000000000000005))
(assert (= var77740
   (ite (= ARGNAME_filter_NAMEEND_DIM temp104435_1)
        #x0000000000000001
        #x0000000000000000)))
(assert (= temp104435_2 #x0000000000000001))
(assert (= var77740 temp104435_2))
(assert (= temp104435_3 #x0000000000000005))
(assert (= var77770
   (ite (= ARGNAME_out_backprop_NAMEEND_DIM temp104435_3)
        #x0000000000000001
        #x0000000000000000)))
(assert (= temp104435_4 #x0000000000000001))
(assert (= var77770 temp104435_4))
(assert (= temp104435_5 #x0000000000000000))
(assert (= temp104435_6 (select ARGNAME_filter_NAMEEND_DIMSIZE temp104435_5)))
(assert (= temp104435_7 #x0000000000000001))
(assert (= temp104435_8 (select ARGNAME_filter_NAMEEND_DIMSIZE temp104435_7)))
(assert (= temp104435_9 #x0000000000000002))
(assert (= temp104435_10 (select ARGNAME_filter_NAMEEND_DIMSIZE temp104435_9)))
(assert (= temp104435_11 #x0000000000000003))
(assert (= temp104435_12 (select ARGNAME_filter_NAMEEND_DIMSIZE temp104435_11)))
(assert (= temp104435_13 #x0000000000000004))
(assert (= temp104435_14 (select ARGNAME_filter_NAMEEND_DIMSIZE temp104435_13)))
(assert (= temp104435_15 #x0000000000000005))
(assert (= temp104435_16 (select ARGNAME_filter_NAMEEND_DIMSIZE temp104435_15)))
(assert (= temp104435_17 #x0000000000000003))
(assert (= temp104435_18 (select ARGNAME_filter_NAMEEND_DIMSIZE temp104435_17)))
(assert (= var77799 temp104435_18))
(assert (= temp104435_19 #x0000000000000000))
(assert (= temp104435_20 (select ARGNAME_out_backprop_NAMEEND_DIMSIZE temp104435_19)))
(assert (= temp104435_21 #x0000000000000001))
(assert (= temp104435_22 (select ARGNAME_out_backprop_NAMEEND_DIMSIZE temp104435_21)))
(assert (= temp104435_23 #x0000000000000002))
(assert (= temp104435_24 (select ARGNAME_out_backprop_NAMEEND_DIMSIZE temp104435_23)))
(assert (= temp104435_25 #x0000000000000003))
(assert (= temp104435_26 (select ARGNAME_out_backprop_NAMEEND_DIMSIZE temp104435_25)))
(assert (= temp104435_27 #x0000000000000004))
(assert (= temp104435_28 (select ARGNAME_out_backprop_NAMEEND_DIMSIZE temp104435_27)))
(assert (= temp104435_29 #x0000000000000005))
(assert (= temp104435_30 (select ARGNAME_out_backprop_NAMEEND_DIMSIZE temp104435_29)))
(assert (= temp104435_31 #x0000000000000004))
(assert (= temp104435_32 (select ARGNAME_out_backprop_NAMEEND_DIMSIZE temp104435_31)))
(assert (= var77832 temp104435_32))
(assert (= temp104435_33 #x0000000000000004))
(assert (= temp104435_34 (select ARGNAME_filter_NAMEEND_DIMSIZE temp104435_33)))
(assert (= var77833 temp104435_34))
(assert (= var77834 (ite (= var77832 var77833) #x0000000000000001 #x0000000000000000)))
(assert (= temp104435_35 #x0000000000000001))
(assert (= var77834 temp104435_35))
(assert (= temp104435_36 #x0000000000000001))
(assert (= var275510 temp104435_36))
(assert (= temp104435_37 #x0000000000000001))
(assert (= var275528
   (ite (bvslt var275510 temp104435_37) #x0000000000000001 #x0000000000000000)))
(assert (= temp104435_38 #x0000000000000000))
(assert (= var275528 temp104435_38))
(assert (= temp104435_39 #x0000000000000001))
(assert (= var406582 temp104435_39))
(assert (= temp104435_40 #x0000000000000001))
(assert (= var406600
   (ite (bvslt var406582 temp104435_40) #x0000000000000001 #x0000000000000000)))
(assert (= temp104435_41 #x0000000000000000))
(assert (= var406600 temp104435_41))
(assert (= temp104435_42 #x0000000000000001))
(assert (= var537654 temp104435_42))
(assert (= temp104435_43 #x0000000000000001))
(assert (= var537672
   (ite (bvslt var537654 temp104435_43) #x0000000000000001 #x0000000000000000)))
(assert (= temp104435_44 #x0000000000000000))
(assert (= var537672 temp104435_44))
(assert (= temp104435_46 #x00000000000000ff))
(assert (= temp104435_45 temp104435_46))
(assert (= temp104435_48 #x00000000000000ff))
(assert (= temp104435_47 temp104435_48))
(assert (= temp104435_50 #x00000000000000ff))
(assert (= temp104435_49 temp104435_50))
(assert (= temp104435_52 #x0000000000000000))
(assert (= temp104435_51 temp104435_52))
(assert (= temp104435_54 #x0000000000000000))
(assert (= temp104435_53 temp104435_54))
(assert (= temp104435_56 #x0000000000000000))
(assert (= temp104435_55 temp104435_56))
(assert (= temp104435_57 #x0000000000008000))
(assert (= var926770 temp104435_57))
(assert (= temp104435_58 #x0000000000000001))
(assert (= var926771
   (ite (bvslt temp104435_55 temp104435_58)
        #x0000000000000001
        #x0000000000000000)))
(assert (= var926772 (ite (= var926771 #x0000000000000001) var926770 temp104435_55)))
(assert (= var926768 var926772))
(assert (= var599004 var926768))
(assert (= temp104435_59 #x0000000000040000))
(assert (= var992306 temp104435_59))
(assert (= temp104435_60 #x0000000000000001))
(assert (= var992307
   (ite (bvslt temp104435_53 temp104435_60)
        #x0000000000000001
        #x0000000000000000)))
(assert (= var992308 (ite (= var992307 #x0000000000000001) var992306 temp104435_53)))
(assert (= var992304 var992308))
(assert (= var599011 var992304))
(assert (= temp104435_61 #x0000000000200000))
(assert (= var1057842 temp104435_61))
(assert (= temp104435_62 #x0000000000000001))
(assert (= var1057843
   (ite (bvslt temp104435_51 temp104435_62)
        #x0000000000000001
        #x0000000000000000)))
(assert (= var1057844 (ite (= var1057843 #x0000000000000001) var1057842 temp104435_51)))
(assert (= var1057840 var1057844))
(assert (= var599016 var1057840))
(assert (= var78095 var599016))
(assert (= temp104435_63 #x0000000000000003))
(assert (= temp104435_64 #xffffffffffffffff))
(assert (= var78179 (bvadd var78096 temp104435_64)))
(model-add temp104435_1 () (_ BitVec 64) #x0000000000000005)
(model-add temp104435_2 () (_ BitVec 64) #x0000000000000001)
(model-add var77740 () (_ BitVec 64) #x0000000000000001)
(model-del k!0)
(model-add ARGNAME_filter_NAMEEND_DIM
           ()
           (_ BitVec 64)
           (ite k!0 #x0000000000000005 (bvnot #x0000000000000005)))


